0 4295
2401 4196
4802 4071
7203 3998
9604 3936
12005 3885
14406 3826
16807 3790
19208 3754
21609 3723
24010 3708
26411 3698
28812 3661
31213 3642
33614 3637
36015 3617
38416 3586
40817 3567
43218 3564
45619 3548
48020 3541
50421 3528
64827 3526
86436 3524
88837 3521
91238 3517
93639 3511
96040 3509
98441 3508
100842 3506
117649 3505
134456 3504
139258 3499
141659 3492
